(declare-fun temp550_2 () (_ BitVec 64))
(declare-fun temp550_1 () (_ BitVec 64))
(declare-fun temp550_3 () (_ BitVec 64))
(declare-fun var3409718 () (_ BitVec 64))
(declare-fun var3608796 () (_ BitVec 64))
(declare-fun temp550_4 () (_ BitVec 64))
(declare-fun var4196331 () (_ BitVec 64))
(declare-fun ARGNAME_input_NAMEEND_DIM () (_ BitVec 64))
(declare-fun temp550_6 () (_ BitVec 64))
(declare-fun temp550_5 () (_ BitVec 64))
(declare-fun var4262775 () (_ BitVec 64))
(declare-fun temp550_7 () (_ BitVec 64))
(declare-fun var4196392 () (_ BitVec 64))
(declare-fun temp550_8 () (_ BitVec 64))
(declare-fun var4196434 () (_ BitVec 64))
(declare-fun var4196379 () (_ BitVec 64))
(declare-fun var4196378 () (_ BitVec 64))
(declare-fun temp550_9 () (_ BitVec 64))
(declare-fun var4196383 () (_ BitVec 64))
(declare-fun temp550_10 () (_ BitVec 64))
(declare-fun var4196385 () (_ BitVec 64))
(declare-fun temp550_11 () (_ BitVec 64))
(declare-fun temp550_12 () (_ BitVec 64))
(declare-fun var4983962 () (_ BitVec 64))
(declare-fun temp550_13 () (_ BitVec 64))
(declare-fun var5376206 () (_ BitVec 64))
(declare-fun temp550_14 () (_ BitVec 64))
(declare-fun temp550_15 () (_ BitVec 64))
(declare-fun var5376252 () (_ BitVec 64))
(declare-fun var5376283 () (_ BitVec 64))
(declare-fun var5376204 () (_ BitVec 64))
(declare-fun var533040 () (_ BitVec 64))
(declare-fun var533041 () (_ BitVec 64))
(declare-fun temp550_16 () (_ BitVec 64))
(declare-fun var6693220 () (_ BitVec 64))
(declare-fun var6693261 () (_ BitVec 64))
(declare-fun temp550_17 () (_ BitVec 64))
(declare-fun var6886021 () (_ BitVec 64))
(declare-fun var6886025 () (_ BitVec 64))
(declare-fun temp550_18 () (_ BitVec 64))
(declare-fun var6886026 () (_ BitVec 64))
(assert (= temp550_2 #x0000000000000000))
(assert (= temp550_1 temp550_2))
(assert (= temp550_3 #x0000000000000000))
(assert (= var3409718 temp550_3))
(assert (= var3608796 var3409718))
(assert (= temp550_4 #x0000000000000001))
(assert (= var4196331 (bvshl ARGNAME_input_NAMEEND_DIM temp550_4)))
(assert (= temp550_6 #x0000000000000000))
(assert (= temp550_5 temp550_6))
(assert (= var4262775 var4196331))
(assert (= temp550_7 #x0000000000000000))
(assert (= var4196392 temp550_7))
(assert (= temp550_8 #x0000000000000001))
(assert (= var4196434 temp550_8))
(assert (= var4196379 var4196434))
(assert (= var4196378 var4196379))
(assert (= temp550_9 #x0000000000000001))
(assert (= var4196383 (bvand var4196378 temp550_9)))
(assert (= temp550_10 #x0000000000000000))
(assert (= var4196385
   (ite (= var4196383 temp550_10) #x0000000000000001 #x0000000000000000)))
(assert (= temp550_11 #x0000000000000000))
(assert (= var4196385 temp550_11))
(assert (= temp550_12 #x0000000000000000))
(assert (= var4983962 temp550_12))
(assert (= temp550_13 #x0000000000000000))
(assert (= var5376206 temp550_13))
(assert (= temp550_14 #x0000000000000002))
(assert (= temp550_15 #x0000000000000000))
(assert (= var5376252 (ite (= var5376206 #x0000000000000001) temp550_14 temp550_15)))
(assert (= var5376283 var5376252))
(assert (= var5376204 var5376283))
(assert (= var533040 var5376204))
(assert (= var533041 var533040))
(assert (= temp550_16 #x0000000000000000))
(assert (= var6693220 temp550_16))
(assert (= var6693261 var6693220))
(assert (= temp550_17 #x0000000000000006))
(assert (= var6886021 temp550_17))
(assert (= var6886025 var533041))
(assert (= temp550_18 #x0000000000000000))
(assert (= var6886026 temp550_18))
(model-add temp550_2 () (_ BitVec 64) #x0000000000000000)
(model-add temp550_1 () (_ BitVec 64) #x0000000000000000)
(model-add temp550_3 () (_ BitVec 64) #x0000000000000000)
(model-add var3409718 () (_ BitVec 64) #x0000000000000000)
(model-add var3608796 () (_ BitVec 64) #x0000000000000000)
(model-add temp550_4 () (_ BitVec 64) #x0000000000000001)
(model-add var4196331
           ()
           (_ BitVec 64)
           (concat ((_ extract 62 0) ARGNAME_input_NAMEEND_DIM) #b0))
(model-add temp550_6 () (_ BitVec 64) #x0000000000000000)
(model-add temp550_5 () (_ BitVec 64) #x0000000000000000)
(model-add var4262775
           ()
           (_ BitVec 64)
           (concat ((_ extract 62 0) ARGNAME_input_NAMEEND_DIM) #b0))
(model-add temp550_7 () (_ BitVec 64) #x0000000000000000)
(model-add var4196392 () (_ BitVec 64) #x0000000000000000)
(model-add temp550_8 () (_ BitVec 64) #x0000000000000001)
(model-add var4196434 () (_ BitVec 64) #x0000000000000001)
(model-add var4196379 () (_ BitVec 64) #x0000000000000001)
(model-add var4196378 () (_ BitVec 64) #x0000000000000001)
(model-add temp550_9 () (_ BitVec 64) #x0000000000000001)
(model-add var4196383 () (_ BitVec 64) #x0000000000000001)
(model-add temp550_10 () (_ BitVec 64) #x0000000000000000)
(model-add var4196385 () (_ BitVec 64) #x0000000000000000)
(model-add temp550_11 () (_ BitVec 64) #x0000000000000000)





